c 3-Coloring of graph with 30 vertices, 116 edges
c Variable x[v][c] = vertex v has color c  (v=0..29, c=0..2)
c Variable number: v*3 + c + 1
c SAT Competition 2026 — Experimental Track — LLM-Guided SAT Solver
c Difficulty: medium
p cnf 90 468
1 2 3 0
4 5 6 0
7 8 9 0
10 11 12 0
13 14 15 0
16 17 18 0
19 20 21 0
22 23 24 0
25 26 27 0
28 29 30 0
31 32 33 0
34 35 36 0
37 38 39 0
40 41 42 0
43 44 45 0
46 47 48 0
49 50 51 0
52 53 54 0
55 56 57 0
58 59 60 0
61 62 63 0
64 65 66 0
67 68 69 0
70 71 72 0
73 74 75 0
76 77 78 0
79 80 81 0
82 83 84 0
85 86 87 0
88 89 90 0
-1 -2 0
-1 -3 0
-2 -3 0
-4 -5 0
-4 -6 0
-5 -6 0
-7 -8 0
-7 -9 0
-8 -9 0
-10 -11 0
-10 -12 0
-11 -12 0
-13 -14 0
-13 -15 0
-14 -15 0
-16 -17 0
-16 -18 0
-17 -18 0
-19 -20 0
-19 -21 0
-20 -21 0
-22 -23 0
-22 -24 0
-23 -24 0
-25 -26 0
-25 -27 0
-26 -27 0
-28 -29 0
-28 -30 0
-29 -30 0
-31 -32 0
-31 -33 0
-32 -33 0
-34 -35 0
-34 -36 0
-35 -36 0
-37 -38 0
-37 -39 0
-38 -39 0
-40 -41 0
-40 -42 0
-41 -42 0
-43 -44 0
-43 -45 0
-44 -45 0
-46 -47 0
-46 -48 0
-47 -48 0
-49 -50 0
-49 -51 0
-50 -51 0
-52 -53 0
-52 -54 0
-53 -54 0
-55 -56 0
-55 -57 0
-56 -57 0
-58 -59 0
-58 -60 0
-59 -60 0
-61 -62 0
-61 -63 0
-62 -63 0
-64 -65 0
-64 -66 0
-65 -66 0
-67 -68 0
-67 -69 0
-68 -69 0
-70 -71 0
-70 -72 0
-71 -72 0
-73 -74 0
-73 -75 0
-74 -75 0
-76 -77 0
-76 -78 0
-77 -78 0
-79 -80 0
-79 -81 0
-80 -81 0
-82 -83 0
-82 -84 0
-83 -84 0
-85 -86 0
-85 -87 0
-86 -87 0
-88 -89 0
-88 -90 0
-89 -90 0
-1 -4 0
-2 -5 0
-3 -6 0
-1 -13 0
-2 -14 0
-3 -15 0
-1 -16 0
-2 -17 0
-3 -18 0
-1 -34 0
-2 -35 0
-3 -36 0
-1 -40 0
-2 -41 0
-3 -42 0
-1 -43 0
-2 -44 0
-3 -45 0
-1 -46 0
-2 -47 0
-3 -48 0
-1 -61 0
-2 -62 0
-3 -63 0
-1 -64 0
-2 -65 0
-3 -66 0
-1 -70 0
-2 -71 0
-3 -72 0
-1 -82 0
-2 -83 0
-3 -84 0
-1 -85 0
-2 -86 0
-3 -87 0
-1 -88 0
-2 -89 0
-3 -90 0
-4 -7 0
-5 -8 0
-6 -9 0
-4 -10 0
-5 -11 0
-6 -12 0
-4 -13 0
-5 -14 0
-6 -15 0
-4 -19 0
-5 -20 0
-6 -21 0
-4 -22 0
-5 -23 0
-6 -24 0
-4 -46 0
-5 -47 0
-6 -48 0
-4 -52 0
-5 -53 0
-6 -54 0
-4 -64 0
-5 -65 0
-6 -66 0
-4 -73 0
-5 -74 0
-6 -75 0
-4 -82 0
-5 -83 0
-6 -84 0
-7 -13 0
-8 -14 0
-9 -15 0
-7 -19 0
-8 -20 0
-9 -21 0
-7 -22 0
-8 -23 0
-9 -24 0
-7 -79 0
-8 -80 0
-9 -81 0
-10 -22 0
-11 -23 0
-12 -24 0
-10 -40 0
-11 -41 0
-12 -42 0
-10 -52 0
-11 -53 0
-12 -54 0
-10 -55 0
-11 -56 0
-12 -57 0
-10 -64 0
-11 -65 0
-12 -66 0
-10 -73 0
-11 -74 0
-12 -75 0
-13 -28 0
-14 -29 0
-15 -30 0
-13 -34 0
-14 -35 0
-15 -36 0
-13 -40 0
-14 -41 0
-15 -42 0
-13 -43 0
-14 -44 0
-15 -45 0
-13 -46 0
-14 -47 0
-15 -48 0
-13 -55 0
-14 -56 0
-15 -57 0
-13 -58 0
-14 -59 0
-15 -60 0
-13 -67 0
-14 -68 0
-15 -69 0
-13 -88 0
-14 -89 0
-15 -90 0
-16 -34 0
-17 -35 0
-18 -36 0
-16 -49 0
-17 -50 0
-18 -51 0
-16 -55 0
-17 -56 0
-18 -57 0
-16 -70 0
-17 -71 0
-18 -72 0
-16 -79 0
-17 -80 0
-18 -81 0
-19 -22 0
-20 -23 0
-21 -24 0
-19 -28 0
-20 -29 0
-21 -30 0
-19 -34 0
-20 -35 0
-21 -36 0
-19 -49 0
-20 -50 0
-21 -51 0
-19 -58 0
-20 -59 0
-21 -60 0
-19 -70 0
-20 -71 0
-21 -72 0
-19 -73 0
-20 -74 0
-21 -75 0
-19 -79 0
-20 -80 0
-21 -81 0
-22 -46 0
-23 -47 0
-24 -48 0
-22 -55 0
-23 -56 0
-24 -57 0
-22 -58 0
-23 -59 0
-24 -60 0
-22 -85 0
-23 -86 0
-24 -87 0
-25 -28 0
-26 -29 0
-27 -30 0
-25 -40 0
-26 -41 0
-27 -42 0
-25 -46 0
-26 -47 0
-27 -48 0
-25 -67 0
-26 -68 0
-27 -69 0
-25 -79 0
-26 -80 0
-27 -81 0
-25 -88 0
-26 -89 0
-27 -90 0
-28 -76 0
-29 -77 0
-30 -78 0
-28 -79 0
-29 -80 0
-30 -81 0
-28 -88 0
-29 -89 0
-30 -90 0
-31 -34 0
-32 -35 0
-33 -36 0
-31 -40 0
-32 -41 0
-33 -42 0
-31 -52 0
-32 -53 0
-33 -54 0
-31 -55 0
-32 -56 0
-33 -57 0
-31 -64 0
-32 -65 0
-33 -66 0
-31 -73 0
-32 -74 0
-33 -75 0
-34 -58 0
-35 -59 0
-36 -60 0
-34 -61 0
-35 -62 0
-36 -63 0
-34 -82 0
-35 -83 0
-36 -84 0
-34 -85 0
-35 -86 0
-36 -87 0
-34 -88 0
-35 -89 0
-36 -90 0
-37 -43 0
-38 -44 0
-39 -45 0
-37 -64 0
-38 -65 0
-39 -66 0
-37 -67 0
-38 -68 0
-39 -69 0
-37 -73 0
-38 -74 0
-39 -75 0
-40 -43 0
-41 -44 0
-42 -45 0
-40 -46 0
-41 -47 0
-42 -48 0
-40 -55 0
-41 -56 0
-42 -57 0
-43 -79 0
-44 -80 0
-45 -81 0
-46 -52 0
-47 -53 0
-48 -54 0
-46 -61 0
-47 -62 0
-48 -63 0
-46 -67 0
-47 -68 0
-48 -69 0
-46 -76 0
-47 -77 0
-48 -78 0
-46 -85 0
-47 -86 0
-48 -87 0
-49 -55 0
-50 -56 0
-51 -57 0
-49 -58 0
-50 -59 0
-51 -60 0
-49 -61 0
-50 -62 0
-51 -63 0
-49 -88 0
-50 -89 0
-51 -90 0
-52 -67 0
-53 -68 0
-54 -69 0
-52 -76 0
-53 -77 0
-54 -78 0
-52 -79 0
-53 -80 0
-54 -81 0
-52 -88 0
-53 -89 0
-54 -90 0
-55 -82 0
-56 -83 0
-57 -84 0
-55 -88 0
-56 -89 0
-57 -90 0
-58 -73 0
-59 -74 0
-60 -75 0
-58 -85 0
-59 -86 0
-60 -87 0
-58 -88 0
-59 -89 0
-60 -90 0
-61 -73 0
-62 -74 0
-63 -75 0
-61 -76 0
-62 -77 0
-63 -78 0
-61 -79 0
-62 -80 0
-63 -81 0
-64 -73 0
-65 -74 0
-66 -75 0
-64 -82 0
-65 -83 0
-66 -84 0
-67 -73 0
-68 -74 0
-69 -75 0
-67 -85 0
-68 -86 0
-69 -87 0
-70 -73 0
-71 -74 0
-72 -75 0
-70 -76 0
-71 -77 0
-72 -78 0
-76 -85 0
-77 -86 0
-78 -87 0
-76 -88 0
-77 -89 0
-78 -90 0
